results_rootrelaxation/bin018_080_009.srr.sol
solution status: optimal solution found
objective value:                     20.7888237377841
_var2987_                          0.0614626789870068 	(obj:1)
_var3036_                           0.156305109781143 	(obj:1)
_var3126_                           0.464085008254629 	(obj:1)
_var3174_                           0.229905668301955 	(obj:1)
_var3181_                           0.185754391775196 	(obj:1)
_var3189_                           0.239765992633847 	(obj:1)
_var3194_                         0.00801398045815055 	(obj:1)
_var3203_                          0.0696951567877825 	(obj:1)
_var3252_                           0.307926457720287 	(obj:1)
_var3253_                          0.0370533877503958 	(obj:1)
_var3255_                           0.214138781855821 	(obj:1)
_var3262_                          0.0492205643450764 	(obj:1)
_var3272_                          0.0642050153961227 	(obj:2)
_var3278_                           0.143166505604844 	(obj:0)
_var3280_                          0.0425731832393974 	(obj:1)
_var3284_                           0.012575041117776 	(obj:2)
_var3286_                           0.416565310737281 	(obj:1)
_var3293_                          0.0244323834683619 	(obj:0)
_var3302_                           0.355853997049826 	(obj:2)
_var3307_                           0.267154141097985 	(obj:2)
_var3329_                           0.145429167209871 	(obj:1)
_var3331_                           0.103074013891092 	(obj:1)
_var3348_                           0.211819520462959 	(obj:1)
_var3351_                          0.0324751798331954 	(obj:0)
_var3357_                           0.255444898638263 	(obj:1)
_var3361_                         0.00487750747269736 	(obj:0)
_var3368_                           0.539077486668668 	(obj:0)
_var3373_                          0.0343210573412481 	(obj:0)
_var3376_                           0.259252201431434 	(obj:1)
_var3391_                          0.0933857932867776 	(obj:1)
_var3394_                           0.154162033211753 	(obj:1)
_var3395_                           0.039702568273417 	(obj:1)
_var3404_                          0.0915022949089726 	(obj:2)
_var3405_                           0.221174717938071 	(obj:1)
_var3413_                          0.0665801075751757 	(obj:0)
_var3415_                           0.292498286388658 	(obj:1)
_var3430_                           0.102964122712577 	(obj:1)
_var3435_                           0.162050480491129 	(obj:1)
_var3439_                         0.00173110823950093 	(obj:2)
_var3443_                         0.00702717918177563 	(obj:2)
_var3447_                           0.313022985414469 	(obj:1)
_var3451_                          0.0481298084137894 	(obj:2)
_var3463_                           0.011981100382058 	(obj:1)
_var3466_                           0.186182160553485 	(obj:1)
_var3469_                          0.0879069904439307 	(obj:1)
_var3474_                          0.0414188991113343 	(obj:2)
_var3475_                          0.0303812581017562 	(obj:1)
_var3476_                           0.319810151580852 	(obj:1)
_var3478_                           0.301695458253322 	(obj:1)
_var3479_                           0.255717735770095 	(obj:1)
_var3481_                          0.0233670674420783 	(obj:1)
_var3490_                           0.032061284773946 	(obj:2)
_var3494_                           0.263605325316882 	(obj:2)
_var3511_                            0.22820396011461 	(obj:2)
_var3514_                          0.0615430486364609 	(obj:0)
_var3515_                          0.0572700054966901 	(obj:1)
_var3520_                          0.0216807884063349 	(obj:2)
_var3521_                         0.00801398045815055 	(obj:2)
_var3525_                           0.253428969306033 	(obj:1)
_var3535_                           0.384509151232467 	(obj:1)
_var3539_                          0.0997170180676385 	(obj:1)
_var3545_                          0.0146563181595728 	(obj:1)
_var3546_                           0.177025910561472 	(obj:0)
_var3547_                           0.102669674310927 	(obj:1)
_var3551_                            0.23467896126479 	(obj:0)
_var3553_                           0.145604764718912 	(obj:3)
_var3558_                          0.0575917566252969 	(obj:2)
_var3559_                          0.0131041871279111 	(obj:1)
_var3560_                           0.321723529052351 	(obj:1)
_var3561_                         0.00884896940376089 	(obj:1)
_var3562_                          0.0730350914438146 	(obj:1)
_var3563_                          0.0430156549486411 	(obj:0)
_var3568_                           0.243192641730968 	(obj:2)
_var3574_                          0.0193741680059876 	(obj:1)
_var3575_                            0.09001845344066 	(obj:2)
_var3579_                           0.215522785151867 	(obj:1)
_var3584_                          0.0205411205909137 	(obj:1)
_var3586_                           0.128713243488602 	(obj:2)
_var3587_                          0.0316511417666147 	(obj:3)
_var3591_                          0.0735939919017811 	(obj:1)
_var3592_                          0.0475320068250902 	(obj:1)
_var3597_                          0.0273827781285593 	(obj:2)
_var3600_                             0.1575908086829 	(obj:1)
_var3604_                           0.113140717451942 	(obj:1)
_var3605_                          0.0372730042650467 	(obj:1)
_var3606_                          0.0610935513367341 	(obj:2)
_var3607_                          0.0570930601221494 	(obj:3)
_var3608_                            0.18041715178117 	(obj:3)
_var3609_                           0.222988322729205 	(obj:1)
_var3617_                          0.0905119370000381 	(obj:0)
_var3619_                          0.0953837577690316 	(obj:3)
_var3620_                           0.134100990411358 	(obj:2)
_var3625_                          0.0530153592421646 	(obj:1)
_var3627_                          0.0247906838291529 	(obj:1)
_var3628_                           0.209765899487462 	(obj:0)
_var3629_                           0.093816217655875 	(obj:1)
_var3630_                          0.0530185630635317 	(obj:1)
_var3632_                           0.314940556480046 	(obj:1)
_var3634_                          0.0564710360383228 	(obj:2)
_var3635_                          0.0511008282682112 	(obj:3)
_var3639_                          0.0706425382798569 	(obj:2)
_var3640_                         0.00769791761772926 	(obj:1)
_var3644_                            0.03410492774198 	(obj:2)
_var3645_                          0.0880950842295164 	(obj:2)
_var3647_                           0.259467002178981 	(obj:2)
_var3648_                            0.18174010712197 	(obj:1)
_var3653_                          0.0276929984579374 	(obj:2)
_var3654_                           0.190124512920646 	(obj:2)
_var3655_                          0.0608572750566082 	(obj:2)
_var3656_                          0.0637753103815754 	(obj:1)
_var3658_                          0.0699726269431925 	(obj:2)
_var3659_                         0.00801398045815055 	(obj:2)
_var3660_                          0.0829450264161307 	(obj:2)
_var3664_                           0.164765483011817 	(obj:2)
_var3665_                         0.00801398045815055 	(obj:1)
_var3669_                           0.103074013891092 	(obj:2)
_var3671_                          0.0296475449811995 	(obj:3)
_var3673_                          0.0697467865856564 	(obj:0)
_var3674_                           0.212069222053879 	(obj:1)
_var3675_                           0.148132899842603 	(obj:3)
_var3676_                           0.127456128631092 	(obj:2)
_var3678_                          0.0822518485547521 	(obj:1)
_var3679_                           0.118421500261472 	(obj:1)
_var3681_                          0.0913791976062435 	(obj:1)
_var3682_                          0.0845166101257877 	(obj:1)
_var3684_                           0.130485831338207 	(obj:1)
_var3685_                           0.057270005496692 	(obj:2)
_var3686_                           0.121567533479455 	(obj:2)
_var3687_                          0.0460547589119976 	(obj:1)
_var3688_                          0.0337923930134465 	(obj:1)
_var3689_                          0.0451463239724433 	(obj:2)
_var3690_                           0.144382343137707 	(obj:0)
_var3691_                           0.124217279662345 	(obj:3)
_var3692_                          0.0371051157861122 	(obj:2)
_var3693_                          0.0774715442617768 	(obj:1)
_var3694_                           0.138657728605748 	(obj:1)
_var3697_                         0.00279848039445696 	(obj:2)
_var3699_                          0.0738550035208495 	(obj:2)
_var3700_                          0.0737962884503771 	(obj:3)
_var3701_                          0.0360042656520622 	(obj:1)
_var3702_                          0.0859554734490902 	(obj:0)
_var3703_                          0.0196176124799108 	(obj:0)
_var3704_                         0.00801398045815055 	(obj:2)
_var3705_                          0.0207312731459841 	(obj:0)
_var3706_                         0.00248890230820392 	(obj:1)
_var3709_                         0.00930263600217562 	(obj:2)
_var3710_                          0.0280455740874648 	(obj:2)
_var3711_                         0.00459590551798567 	(obj:2)
