results_rootrelaxation/bin018_080_009.srr.log
SCIP version 8.0.3.5 [precision: 8 byte] [memory: block] [mode: optimized] [LP solver: Soplex 6.0.1.3] [GitHash: 438792519e]
Copyright (c) 2002-2023 Zuse Institute Berlin (ZIB)

External libraries: 
  Readline 8.1         GNU library for command line editing (gnu.org/s/readline)
  Soplex 6.0.1.3       Linear Programming Solver developed at Zuse Institute Berlin (soplex.zib.de) [GitHash: 713be0fe]
  CppAD 20180000.0     Algorithmic Differentiation of C++ algorithms developed by B. Bell (github.com/coin-or/CppAD)
  ZLIB 1.2.11          General purpose compression library by J. Gailly and M. Adler (zlib.net)
  bliss 0.77           Computing Graph Automorphism Groups by T. Junttila and P. Kaski (www.tcs.hut.fi/Software/bliss/)

user parameter file <scip.set> not found - using default parameters

srr/relaxation = TRUE

read problem <instances/bin018_080_009.srr>
============

Original problem: 
original problem has 0 variables (0 bin, 0 int, 0 impl, 0 cont) and 170 constraints

presolving:
presolving (1 rounds: 1 fast, 1 medium, 1 exhaustive):
 0 deleted vars, 0 deleted constraints, 0 added constraints, 0 tightened bounds, 0 added holes, 0 changed sides, 0 changed coefficients
 0 implications, 0 cliques
presolved problem has 0 variables (0 bin, 0 int, 0 impl, 0 cont) and 170 constraints
    170 constraints of type <linear>
Presolving Time: 0.00

 time | node  | left  |LP iter|LP it/n|mem/heur|mdpt |vars |cons |rows |cuts |sepa|confs|strbr|  dualbound   | primalbound  |  gap   | compl. 
  0.0s|     1 |     0 |     1 |     - |   922k |   0 |   1 | 170 | 170 |   0 |  0 |   0 |   0 |      --      |      --      |    Inf | unknown
  0.2s|     1 |     0 |  1245 |     - |  7174k |   0 |1615 | 170 | 170 |   0 |  0 |   0 |   0 |      --      |      --      |    Inf | unknown
r 0.9s|     1 |     0 |  6854 |     - |simplero|   0 |2703 | 170 | 170 |   0 |  0 |   0 |   0 |      --      | 8.437978e+01 |    Inf | unknown
r 1.0s|     1 |     0 |  6983 |     - |simplero|   0 |2720 | 170 | 170 |   0 |  0 |   0 |   0 |      --      | 8.141894e+01 |    Inf | unknown
r 1.0s|     1 |     0 |  7100 |     - |simplero|   0 |2737 | 170 | 170 |   0 |  0 |   0 |   0 |      --      | 7.924600e+01 |    Inf | unknown
r 1.0s|     1 |     0 |  7221 |     - |simplero|   0 |2754 | 170 | 170 |   0 |  0 |   0 |   0 |      --      | 7.630423e+01 |    Inf | unknown
r 1.0s|     1 |     0 |  7429 |     - |simplero|   0 |2771 | 170 | 170 |   0 |  0 |   0 |   0 |      --      | 7.205540e+01 |    Inf | unknown
r 1.1s|     1 |     0 |  7581 |     - |simplero|   0 |2788 | 170 | 170 |   0 |  0 |   0 |   0 |      --      | 7.055075e+01 |    Inf | unknown
r 1.1s|     1 |     0 |  7792 |     - |simplero|   0 |2805 | 170 | 170 |   0 |  0 |   0 |   0 |      --      | 6.659181e+01 |    Inf | unknown
r 1.1s|     1 |     0 |  7910 |     - |simplero|   0 |2822 | 170 | 170 |   0 |  0 |   0 |   0 |      --      | 6.426245e+01 |    Inf | unknown
r 1.1s|     1 |     0 |  7977 |     - |simplero|   0 |2822 | 170 | 170 |   0 |  0 |   0 |   0 |      --      | 6.355093e+01 |    Inf | unknown
r 1.1s|     1 |     0 |  7985 |     - |simplero|   0 |2822 | 170 | 170 |   0 |  0 |   0 |   0 |      --      | 6.354144e+01 |    Inf | unknown
r 1.1s|     1 |     0 |  7987 |     - |simplero|   0 |2822 | 170 | 170 |   0 |  0 |   0 |   0 |      --      | 6.354133e+01 |    Inf | unknown
r 1.1s|     1 |     0 |  8143 |     - |simplero|   0 |2839 | 170 | 170 |   0 |  0 |   0 |   0 |      --      | 6.089573e+01 |    Inf | unknown
r 1.2s|     1 |     0 |  8224 |     - |simplero|   0 |2839 | 170 | 170 |   0 |  0 |   0 |   0 |      --      | 6.052209e+01 |    Inf | unknown
 time | node  | left  |LP iter|LP it/n|mem/heur|mdpt |vars |cons |rows |cuts |sepa|confs|strbr|  dualbound   | primalbound  |  gap   | compl. 
r 1.2s|     1 |     0 |  8243 |     - |simplero|   0 |2839 | 170 | 170 |   0 |  0 |   0 |   0 |      --      | 6.050089e+01 |    Inf | unknown
r 1.2s|     1 |     0 |  8255 |     - |simplero|   0 |2839 | 170 | 170 |   0 |  0 |   0 |   0 |      --      | 6.048784e+01 |    Inf | unknown
r 1.2s|     1 |     0 |  8256 |     - |simplero|   0 |2839 | 170 | 170 |   0 |  0 |   0 |   0 |      --      | 6.048784e+01 |    Inf | unknown
r 1.2s|     1 |     0 |  8378 |     - |simplero|   0 |2856 | 170 | 170 |   0 |  0 |   0 |   0 |      --      | 5.883190e+01 |    Inf | unknown
r 1.2s|     1 |     0 |  8458 |     - |simplero|   0 |2856 | 170 | 170 |   0 |  0 |   0 |   0 |      --      | 5.801949e+01 |    Inf | unknown
r 1.2s|     1 |     0 |  8466 |     - |simplero|   0 |2856 | 170 | 170 |   0 |  0 |   0 |   0 |      --      | 5.799360e+01 |    Inf | unknown
r 1.2s|     1 |     0 |  8475 |     - |simplero|   0 |2856 | 170 | 170 |   0 |  0 |   0 |   0 |      --      | 5.798900e+01 |    Inf | unknown
r 1.2s|     1 |     0 |  8577 |     - |simplero|   0 |2873 | 170 | 170 |   0 |  0 |   0 |   0 |      --      | 5.708914e+01 |    Inf | unknown
r 1.2s|     1 |     0 |  8645 |     - |simplero|   0 |2873 | 170 | 170 |   0 |  0 |   0 |   0 |      --      | 5.652330e+01 |    Inf | unknown
r 1.2s|     1 |     0 |  8663 |     - |simplero|   0 |2873 | 170 | 170 |   0 |  0 |   0 |   0 |      --      | 5.649889e+01 |    Inf | unknown
r 1.2s|     1 |     0 |  8664 |     - |simplero|   0 |2873 | 170 | 170 |   0 |  0 |   0 |   0 |      --      | 5.649882e+01 |    Inf | unknown
r 1.3s|     1 |     0 |  8815 |     - |simplero|   0 |2890 | 170 | 170 |   0 |  0 |   0 |   0 |      --      | 5.459477e+01 |    Inf | unknown
r 1.3s|     1 |     0 |  8864 |     - |simplero|   0 |2890 | 170 | 170 |   0 |  0 |   0 |   0 |      --      | 5.428212e+01 |    Inf | unknown
r 1.3s|     1 |     0 |  8884 |     - |simplero|   0 |2890 | 170 | 170 |   0 |  0 |   0 |   0 |      --      | 5.422789e+01 |    Inf | unknown
r 1.3s|     1 |     0 |  8891 |     - |simplero|   0 |2890 | 170 | 170 |   0 |  0 |   0 |   0 |      --      | 5.422752e+01 |    Inf | unknown
 time | node  | left  |LP iter|LP it/n|mem/heur|mdpt |vars |cons |rows |cuts |sepa|confs|strbr|  dualbound   | primalbound  |  gap   | compl. 
r 1.3s|     1 |     0 |  9047 |     - |simplero|   0 |2907 | 170 | 170 |   0 |  0 |   0 |   0 |      --      | 5.228320e+01 |    Inf | unknown
r 1.3s|     1 |     0 |  9162 |     - |simplero|   0 |2907 | 170 | 170 |   0 |  0 |   0 |   0 |      --      | 5.181682e+01 |    Inf | unknown
r 1.3s|     1 |     0 |  9187 |     - |simplero|   0 |2907 | 170 | 170 |   0 |  0 |   0 |   0 |      --      | 5.179349e+01 |    Inf | unknown
r 1.3s|     1 |     0 |  9348 |     - |simplero|   0 |2924 | 170 | 170 |   0 |  0 |   0 |   0 |      --      | 4.926470e+01 |    Inf | unknown
r 1.3s|     1 |     0 |  9432 |     - |simplero|   0 |2924 | 170 | 170 |   0 |  0 |   0 |   0 |      --      | 4.900487e+01 |    Inf | unknown
r 1.3s|     1 |     0 |  9444 |     - |simplero|   0 |2924 | 170 | 170 |   0 |  0 |   0 |   0 |      --      | 4.900278e+01 |    Inf | unknown
  1.4s|     1 |     0 |  9455 |     - |    14M |   0 |2924 | 170 | 170 |   0 |  0 |   0 |   0 |      --      | 4.900278e+01 |    Inf | unknown
r 1.4s|     1 |     0 |  9455 |     - |simplero|   0 |2924 | 170 | 170 |   0 |  0 |   0 |   0 |      --      | 4.899796e+01 |    Inf | unknown
r 1.4s|     1 |     0 |  9686 |     - |simplero|   0 |2941 | 170 | 170 |   0 |  0 |   0 |   0 |      --      | 4.700261e+01 |    Inf | unknown
r 1.4s|     1 |     0 |  9740 |     - |simplero|   0 |2941 | 170 | 170 |   0 |  0 |   0 |   0 |      --      | 4.682437e+01 |    Inf | unknown
r 1.4s|     1 |     0 |  9743 |     - |simplero|   0 |2941 | 170 | 170 |   0 |  0 |   0 |   0 |      --      | 4.682403e+01 |    Inf | unknown
r 1.4s|     1 |     0 |  9893 |     - |simplero|   0 |2958 | 170 | 170 |   0 |  0 |   0 |   0 |      --      | 4.535758e+01 |    Inf | unknown
r 1.4s|     1 |     0 |  9937 |     - |simplero|   0 |2958 | 170 | 170 |   0 |  0 |   0 |   0 |      --      | 4.522611e+01 |    Inf | unknown
r 1.4s|     1 |     0 |  9938 |     - |simplero|   0 |2958 | 170 | 170 |   0 |  0 |   0 |   0 |      --      | 4.522609e+01 |    Inf | unknown
r 1.4s|     1 |     0 | 10133 |     - |simplero|   0 |2975 | 170 | 170 |   0 |  0 |   0 |   0 |      --      | 4.381513e+01 |    Inf | unknown
 time | node  | left  |LP iter|LP it/n|mem/heur|mdpt |vars |cons |rows |cuts |sepa|confs|strbr|  dualbound   | primalbound  |  gap   | compl. 
r 1.4s|     1 |     0 | 10148 |     - |simplero|   0 |2975 | 170 | 170 |   0 |  0 |   0 |   0 |      --      | 4.379744e+01 |    Inf | unknown
r 1.4s|     1 |     0 | 10150 |     - |simplero|   0 |2975 | 170 | 170 |   0 |  0 |   0 |   0 |      --      | 4.379681e+01 |    Inf | unknown
r 1.5s|     1 |     0 | 10342 |     - |simplero|   0 |2992 | 170 | 170 |   0 |  0 |   0 |   0 |      --      | 4.224346e+01 |    Inf | unknown
r 1.5s|     1 |     0 | 10386 |     - |simplero|   0 |2992 | 170 | 170 |   0 |  0 |   0 |   0 |      --      | 4.210011e+01 |    Inf | unknown
r 1.5s|     1 |     0 | 10531 |     - |simplero|   0 |3009 | 170 | 170 |   0 |  0 |   0 |   0 |      --      | 4.097114e+01 |    Inf | unknown
r 1.5s|     1 |     0 | 10587 |     - |simplero|   0 |3009 | 170 | 170 |   0 |  0 |   0 |   0 |      --      | 4.080147e+01 |    Inf | unknown
r 1.5s|     1 |     0 | 10617 |     - |simplero|   0 |3009 | 170 | 170 |   0 |  0 |   0 |   0 |      --      | 4.076826e+01 |    Inf | unknown
r 1.5s|     1 |     0 | 10622 |     - |simplero|   0 |3009 | 170 | 170 |   0 |  0 |   0 |   0 |      --      | 4.076710e+01 |    Inf | unknown
r 1.5s|     1 |     0 | 10759 |     - |simplero|   0 |3026 | 170 | 170 |   0 |  0 |   0 |   0 |      --      | 3.939593e+01 |    Inf | unknown
r 1.5s|     1 |     0 | 10836 |     - |simplero|   0 |3026 | 170 | 170 |   0 |  0 |   0 |   0 |      --      | 3.905900e+01 |    Inf | unknown
r 1.5s|     1 |     0 | 10864 |     - |simplero|   0 |3026 | 170 | 170 |   0 |  0 |   0 |   0 |      --      | 3.901696e+01 |    Inf | unknown
r 1.6s|     1 |     0 | 10956 |     - |simplero|   0 |3043 | 170 | 170 |   0 |  0 |   0 |   0 |      --      | 3.799260e+01 |    Inf | unknown
r 1.6s|     1 |     0 | 10978 |     - |simplero|   0 |3043 | 170 | 170 |   0 |  0 |   0 |   0 |      --      | 3.796452e+01 |    Inf | unknown
r 1.6s|     1 |     0 | 10980 |     - |simplero|   0 |3043 | 170 | 170 |   0 |  0 |   0 |   0 |      --      | 3.796438e+01 |    Inf | unknown
r 1.6s|     1 |     0 | 11114 |     - |simplero|   0 |3060 | 170 | 170 |   0 |  0 |   0 |   0 |      --      | 3.716024e+01 |    Inf | unknown
 time | node  | left  |LP iter|LP it/n|mem/heur|mdpt |vars |cons |rows |cuts |sepa|confs|strbr|  dualbound   | primalbound  |  gap   | compl. 
r 1.6s|     1 |     0 | 11135 |     - |simplero|   0 |3060 | 170 | 170 |   0 |  0 |   0 |   0 |      --      | 3.710445e+01 |    Inf | unknown
r 1.6s|     1 |     0 | 11147 |     - |simplero|   0 |3060 | 170 | 170 |   0 |  0 |   0 |   0 |      --      | 3.709765e+01 |    Inf | unknown
r 1.6s|     1 |     0 | 11278 |     - |simplero|   0 |3077 | 170 | 170 |   0 |  0 |   0 |   0 |      --      | 3.637756e+01 |    Inf | unknown
r 1.6s|     1 |     0 | 11301 |     - |simplero|   0 |3077 | 170 | 170 |   0 |  0 |   0 |   0 |      --      | 3.635239e+01 |    Inf | unknown
r 1.6s|     1 |     0 | 11306 |     - |simplero|   0 |3077 | 170 | 170 |   0 |  0 |   0 |   0 |      --      | 3.635190e+01 |    Inf | unknown
r 1.6s|     1 |     0 | 11413 |     - |simplero|   0 |3094 | 170 | 170 |   0 |  0 |   0 |   0 |      --      | 3.564973e+01 |    Inf | unknown
r 1.7s|     1 |     0 | 11448 |     - |simplero|   0 |3094 | 170 | 170 |   0 |  0 |   0 |   0 |      --      | 3.557153e+01 |    Inf | unknown
r 1.7s|     1 |     0 | 11453 |     - |simplero|   0 |3094 | 170 | 170 |   0 |  0 |   0 |   0 |      --      | 3.557053e+01 |    Inf | unknown
r 1.7s|     1 |     0 | 11454 |     - |simplero|   0 |3094 | 170 | 170 |   0 |  0 |   0 |   0 |      --      | 3.557053e+01 |    Inf | unknown
r 1.7s|     1 |     0 | 11553 |     - |simplero|   0 |3111 | 170 | 170 |   0 |  0 |   0 |   0 |      --      | 3.499456e+01 |    Inf | unknown
r 1.7s|     1 |     0 | 11573 |     - |simplero|   0 |3111 | 170 | 170 |   0 |  0 |   0 |   0 |      --      | 3.495737e+01 |    Inf | unknown
r 1.7s|     1 |     0 | 11596 |     - |simplero|   0 |3111 | 170 | 170 |   0 |  0 |   0 |   0 |      --      | 3.492986e+01 |    Inf | unknown
r 1.7s|     1 |     0 | 11598 |     - |simplero|   0 |3111 | 170 | 170 |   0 |  0 |   0 |   0 |      --      | 3.492948e+01 |    Inf | unknown
r 1.7s|     1 |     0 | 11733 |     - |simplero|   0 |3128 | 170 | 170 |   0 |  0 |   0 |   0 |      --      | 3.403874e+01 |    Inf | unknown
r 1.7s|     1 |     0 | 11784 |     - |simplero|   0 |3128 | 170 | 170 |   0 |  0 |   0 |   0 |      --      | 3.389834e+01 |    Inf | unknown
 time | node  | left  |LP iter|LP it/n|mem/heur|mdpt |vars |cons |rows |cuts |sepa|confs|strbr|  dualbound   | primalbound  |  gap   | compl. 
r 1.7s|     1 |     0 | 11792 |     - |simplero|   0 |3128 | 170 | 170 |   0 |  0 |   0 |   0 |      --      | 3.389613e+01 |    Inf | unknown
r 1.7s|     1 |     0 | 11794 |     - |simplero|   0 |3128 | 170 | 170 |   0 |  0 |   0 |   0 |      --      | 3.389613e+01 |    Inf | unknown
r 1.8s|     1 |     0 | 11899 |     - |simplero|   0 |3145 | 170 | 170 |   0 |  0 |   0 |   0 |      --      | 3.350382e+01 |    Inf | unknown
r 1.8s|     1 |     0 | 11945 |     - |simplero|   0 |3145 | 170 | 170 |   0 |  0 |   0 |   0 |      --      | 3.342569e+01 |    Inf | unknown
r 1.8s|     1 |     0 | 11956 |     - |simplero|   0 |3145 | 170 | 170 |   0 |  0 |   0 |   0 |      --      | 3.341907e+01 |    Inf | unknown
r 1.8s|     1 |     0 | 12122 |     - |simplero|   0 |3162 | 170 | 170 |   0 |  0 |   0 |   0 |      --      | 3.244373e+01 |    Inf | unknown
r 1.8s|     1 |     0 | 12167 |     - |simplero|   0 |3162 | 170 | 170 |   0 |  0 |   0 |   0 |      --      | 3.232945e+01 |    Inf | unknown
r 1.8s|     1 |     0 | 12176 |     - |simplero|   0 |3162 | 170 | 170 |   0 |  0 |   0 |   0 |      --      | 3.232552e+01 |    Inf | unknown
r 1.8s|     1 |     0 | 12297 |     - |simplero|   0 |3179 | 170 | 170 |   0 |  0 |   0 |   0 |      --      | 3.173313e+01 |    Inf | unknown
r 1.8s|     1 |     0 | 12353 |     - |simplero|   0 |3179 | 170 | 170 |   0 |  0 |   0 |   0 |      --      | 3.153920e+01 |    Inf | unknown
r 1.8s|     1 |     0 | 12490 |     - |simplero|   0 |3196 | 170 | 170 |   0 |  0 |   0 |   0 |      --      | 3.061756e+01 |    Inf | unknown
r 1.8s|     1 |     0 | 12508 |     - |simplero|   0 |3196 | 170 | 170 |   0 |  0 |   0 |   0 |      --      | 3.060119e+01 |    Inf | unknown
r 1.9s|     1 |     0 | 12509 |     - |simplero|   0 |3196 | 170 | 170 |   0 |  0 |   0 |   0 |      --      | 3.060118e+01 |    Inf | unknown
r 1.9s|     1 |     0 | 12576 |     - |simplero|   0 |3213 | 170 | 170 |   0 |  0 |   0 |   0 |      --      | 3.001676e+01 |    Inf | unknown
r 1.9s|     1 |     0 | 12644 |     - |simplero|   0 |3213 | 170 | 170 |   0 |  0 |   0 |   0 |      --      | 2.974931e+01 |    Inf | unknown
 time | node  | left  |LP iter|LP it/n|mem/heur|mdpt |vars |cons |rows |cuts |sepa|confs|strbr|  dualbound   | primalbound  |  gap   | compl. 
r 1.9s|     1 |     0 | 12661 |     - |simplero|   0 |3213 | 170 | 170 |   0 |  0 |   0 |   0 |      --      | 2.972614e+01 |    Inf | unknown
r 1.9s|     1 |     0 | 12668 |     - |simplero|   0 |3213 | 170 | 170 |   0 |  0 |   0 |   0 |      --      | 2.972426e+01 |    Inf | unknown
r 1.9s|     1 |     0 | 12671 |     - |simplero|   0 |3213 | 170 | 170 |   0 |  0 |   0 |   0 |      --      | 2.972394e+01 |    Inf | unknown
r 1.9s|     1 |     0 | 12785 |     - |simplero|   0 |3230 | 170 | 170 |   0 |  0 |   0 |   0 |      --      | 2.905326e+01 |    Inf | unknown
r 1.9s|     1 |     0 | 12828 |     - |simplero|   0 |3230 | 170 | 170 |   0 |  0 |   0 |   0 |      --      | 2.895617e+01 |    Inf | unknown
r 1.9s|     1 |     0 | 12836 |     - |simplero|   0 |3230 | 170 | 170 |   0 |  0 |   0 |   0 |      --      | 2.895268e+01 |    Inf | unknown
r 1.9s|     1 |     0 | 12837 |     - |simplero|   0 |3230 | 170 | 170 |   0 |  0 |   0 |   0 |      --      | 2.895262e+01 |    Inf | unknown
r 1.9s|     1 |     0 | 12945 |     - |simplero|   0 |3247 | 170 | 170 |   0 |  0 |   0 |   0 |      --      | 2.816696e+01 |    Inf | unknown
r 2.0s|     1 |     0 | 12996 |     - |simplero|   0 |3247 | 170 | 170 |   0 |  0 |   0 |   0 |      --      | 2.798330e+01 |    Inf | unknown
r 2.0s|     1 |     0 | 13024 |     - |simplero|   0 |3247 | 170 | 170 |   0 |  0 |   0 |   0 |      --      | 2.791812e+01 |    Inf | unknown
r 2.0s|     1 |     0 | 13025 |     - |simplero|   0 |3247 | 170 | 170 |   0 |  0 |   0 |   0 |      --      | 2.791798e+01 |    Inf | unknown
r 2.0s|     1 |     0 | 13157 |     - |simplero|   0 |3264 | 170 | 170 |   0 |  0 |   0 |   0 |      --      | 2.729917e+01 |    Inf | unknown
r 2.0s|     1 |     0 | 13202 |     - |simplero|   0 |3264 | 170 | 170 |   0 |  0 |   0 |   0 |      --      | 2.719956e+01 |    Inf | unknown
r 2.0s|     1 |     0 | 13213 |     - |simplero|   0 |3264 | 170 | 170 |   0 |  0 |   0 |   0 |      --      | 2.718598e+01 |    Inf | unknown
r 2.0s|     1 |     0 | 13343 |     - |simplero|   0 |3281 | 170 | 170 |   0 |  0 |   0 |   0 |      --      | 2.658730e+01 |    Inf | unknown
 time | node  | left  |LP iter|LP it/n|mem/heur|mdpt |vars |cons |rows |cuts |sepa|confs|strbr|  dualbound   | primalbound  |  gap   | compl. 
r 2.0s|     1 |     0 | 13392 |     - |simplero|   0 |3281 | 170 | 170 |   0 |  0 |   0 |   0 |      --      | 2.652812e+01 |    Inf | unknown
r 2.0s|     1 |     0 | 13404 |     - |simplero|   0 |3281 | 170 | 170 |   0 |  0 |   0 |   0 |      --      | 2.652423e+01 |    Inf | unknown
r 2.0s|     1 |     0 | 13560 |     - |simplero|   0 |3298 | 170 | 170 |   0 |  0 |   0 |   0 |      --      | 2.574010e+01 |    Inf | unknown
r 2.1s|     1 |     0 | 13617 |     - |simplero|   0 |3298 | 170 | 170 |   0 |  0 |   0 |   0 |      --      | 2.568251e+01 |    Inf | unknown
r 2.1s|     1 |     0 | 13623 |     - |simplero|   0 |3298 | 170 | 170 |   0 |  0 |   0 |   0 |      --      | 2.568159e+01 |    Inf | unknown
r 2.1s|     1 |     0 | 13754 |     - |simplero|   0 |3315 | 170 | 170 |   0 |  0 |   0 |   0 |      --      | 2.525280e+01 |    Inf | unknown
r 2.1s|     1 |     0 | 13772 |     - |simplero|   0 |3315 | 170 | 170 |   0 |  0 |   0 |   0 |      --      | 2.523203e+01 |    Inf | unknown
r 2.1s|     1 |     0 | 13781 |     - |simplero|   0 |3315 | 170 | 170 |   0 |  0 |   0 |   0 |      --      | 2.522958e+01 |    Inf | unknown
r 2.1s|     1 |     0 | 13873 |     - |simplero|   0 |3332 | 170 | 170 |   0 |  0 |   0 |   0 |      --      | 2.493414e+01 |    Inf | unknown
r 2.1s|     1 |     0 | 13942 |     - |simplero|   0 |3332 | 170 | 170 |   0 |  0 |   0 |   0 |      --      | 2.483579e+01 |    Inf | unknown
r 2.1s|     1 |     0 | 13947 |     - |simplero|   0 |3332 | 170 | 170 |   0 |  0 |   0 |   0 |      --      | 2.483523e+01 |    Inf | unknown
r 2.1s|     1 |     0 | 14100 |     - |simplero|   0 |3349 | 170 | 170 |   0 |  0 |   0 |   0 |      --      | 2.420137e+01 |    Inf | unknown
r 2.1s|     1 |     0 | 14122 |     - |simplero|   0 |3349 | 170 | 170 |   0 |  0 |   0 |   0 |      --      | 2.419031e+01 |    Inf | unknown
r 2.2s|     1 |     0 | 14220 |     - |simplero|   0 |3366 | 170 | 170 |   0 |  0 |   0 |   0 |      --      | 2.387406e+01 |    Inf | unknown
r 2.2s|     1 |     0 | 14269 |     - |simplero|   0 |3366 | 170 | 170 |   0 |  0 |   0 |   0 |      --      | 2.377060e+01 |    Inf | unknown
 time | node  | left  |LP iter|LP it/n|mem/heur|mdpt |vars |cons |rows |cuts |sepa|confs|strbr|  dualbound   | primalbound  |  gap   | compl. 
r 2.2s|     1 |     0 | 14281 |     - |simplero|   0 |3366 | 170 | 170 |   0 |  0 |   0 |   0 |      --      | 2.376780e+01 |    Inf | unknown
r 2.2s|     1 |     0 | 14400 |     - |simplero|   0 |3383 | 170 | 170 |   0 |  0 |   0 |   0 |      --      | 2.344924e+01 |    Inf | unknown
r 2.2s|     1 |     0 | 14417 |     - |simplero|   0 |3383 | 170 | 170 |   0 |  0 |   0 |   0 |      --      | 2.344602e+01 |    Inf | unknown
r 2.2s|     1 |     0 | 14427 |     - |simplero|   0 |3383 | 170 | 170 |   0 |  0 |   0 |   0 |      --      | 2.344427e+01 |    Inf | unknown
r 2.2s|     1 |     0 | 14500 |     - |simplero|   0 |3400 | 170 | 170 |   0 |  0 |   0 |   0 |      --      | 2.312721e+01 |    Inf | unknown
r 2.2s|     1 |     0 | 14531 |     - |simplero|   0 |3400 | 170 | 170 |   0 |  0 |   0 |   0 |      --      | 2.309686e+01 |    Inf | unknown
r 2.2s|     1 |     0 | 14536 |     - |simplero|   0 |3400 | 170 | 170 |   0 |  0 |   0 |   0 |      --      | 2.309587e+01 |    Inf | unknown
r 2.2s|     1 |     0 | 14637 |     - |simplero|   0 |3417 | 170 | 170 |   0 |  0 |   0 |   0 |      --      | 2.279012e+01 |    Inf | unknown
r 2.2s|     1 |     0 | 14676 |     - |simplero|   0 |3417 | 170 | 170 |   0 |  0 |   0 |   0 |      --      | 2.272299e+01 |    Inf | unknown
r 2.2s|     1 |     0 | 14695 |     - |simplero|   0 |3417 | 170 | 170 |   0 |  0 |   0 |   0 |      --      | 2.271523e+01 |    Inf | unknown
r 2.3s|     1 |     0 | 14795 |     - |simplero|   0 |3434 | 170 | 170 |   0 |  0 |   0 |   0 |      --      | 2.248228e+01 |    Inf | unknown
r 2.3s|     1 |     0 | 14856 |     - |simplero|   0 |3434 | 170 | 170 |   0 |  0 |   0 |   0 |      --      | 2.243229e+01 |    Inf | unknown
r 2.3s|     1 |     0 | 14865 |     - |simplero|   0 |3434 | 170 | 170 |   0 |  0 |   0 |   0 |      --      | 2.243156e+01 |    Inf | unknown
r 2.3s|     1 |     0 | 14977 |     - |simplero|   0 |3451 | 170 | 170 |   0 |  0 |   0 |   0 |      --      | 2.218250e+01 |    Inf | unknown
r 2.3s|     1 |     0 | 15013 |     - |simplero|   0 |3451 | 170 | 170 |   0 |  0 |   0 |   0 |      --      | 2.215915e+01 |    Inf | unknown
 time | node  | left  |LP iter|LP it/n|mem/heur|mdpt |vars |cons |rows |cuts |sepa|confs|strbr|  dualbound   | primalbound  |  gap   | compl. 
r 2.3s|     1 |     0 | 15099 |     - |simplero|   0 |3468 | 170 | 170 |   0 |  0 |   0 |   0 |      --      | 2.200670e+01 |    Inf | unknown
r 2.3s|     1 |     0 | 15100 |     - |simplero|   0 |3468 | 170 | 170 |   0 |  0 |   0 |   0 |      --      | 2.200666e+01 |    Inf | unknown
  2.3s|     1 |     0 | 15193 |     - |    21M |   0 |3485 | 170 | 170 |   0 |  0 |   0 |   0 |      --      | 2.200666e+01 |    Inf | unknown
r 2.3s|     1 |     0 | 15193 |     - |simplero|   0 |3485 | 170 | 170 |   0 |  0 |   0 |   0 |      --      | 2.184705e+01 |    Inf | unknown
r 2.3s|     1 |     0 | 15217 |     - |simplero|   0 |3485 | 170 | 170 |   0 |  0 |   0 |   0 |      --      | 2.183991e+01 |    Inf | unknown
r 2.3s|     1 |     0 | 15219 |     - |simplero|   0 |3485 | 170 | 170 |   0 |  0 |   0 |   0 |      --      | 2.183982e+01 |    Inf | unknown
r 2.3s|     1 |     0 | 15330 |     - |simplero|   0 |3502 | 170 | 170 |   0 |  0 |   0 |   0 |      --      | 2.167841e+01 |    Inf | unknown
r 2.3s|     1 |     0 | 15364 |     - |simplero|   0 |3502 | 170 | 170 |   0 |  0 |   0 |   0 |      --      | 2.167140e+01 |    Inf | unknown
r 2.4s|     1 |     0 | 15427 |     - |simplero|   0 |3519 | 170 | 170 |   0 |  0 |   0 |   0 |      --      | 2.154221e+01 |    Inf | unknown
r 2.4s|     1 |     0 | 15455 |     - |simplero|   0 |3519 | 170 | 170 |   0 |  0 |   0 |   0 |      --      | 2.151765e+01 |    Inf | unknown
r 2.4s|     1 |     0 | 15458 |     - |simplero|   0 |3519 | 170 | 170 |   0 |  0 |   0 |   0 |      --      | 2.151763e+01 |    Inf | unknown
r 2.4s|     1 |     0 | 15543 |     - |simplero|   0 |3535 | 170 | 170 |   0 |  0 |   0 |   0 |      --      | 2.142368e+01 |    Inf | unknown
r 2.4s|     1 |     0 | 15587 |     - |simplero|   0 |3535 | 170 | 170 |   0 |  0 |   0 |   0 |      --      | 2.141175e+01 |    Inf | unknown
r 2.4s|     1 |     0 | 15598 |     - |simplero|   0 |3535 | 170 | 170 |   0 |  0 |   0 |   0 |      --      | 2.141093e+01 |    Inf | unknown
r 2.4s|     1 |     0 | 15604 |     - |simplero|   0 |3535 | 170 | 170 |   0 |  0 |   0 |   0 |      --      | 2.141083e+01 |    Inf | unknown
 time | node  | left  |LP iter|LP it/n|mem/heur|mdpt |vars |cons |rows |cuts |sepa|confs|strbr|  dualbound   | primalbound  |  gap   | compl. 
r 2.4s|     1 |     0 | 15680 |     - |simplero|   0 |3549 | 170 | 170 |   0 |  0 |   0 |   0 |      --      | 2.132389e+01 |    Inf | unknown
r 2.4s|     1 |     0 | 15716 |     - |simplero|   0 |3549 | 170 | 170 |   0 |  0 |   0 |   0 |      --      | 2.129057e+01 |    Inf | unknown
r 2.4s|     1 |     0 | 15723 |     - |simplero|   0 |3549 | 170 | 170 |   0 |  0 |   0 |   0 |      --      | 2.128949e+01 |    Inf | unknown
r 2.4s|     1 |     0 | 15728 |     - |simplero|   0 |3549 | 170 | 170 |   0 |  0 |   0 |   0 |      --      | 2.128937e+01 |    Inf | unknown
r 2.4s|     1 |     0 | 15790 |     - |simplero|   0 |3565 | 170 | 170 |   0 |  0 |   0 |   0 |      --      | 2.118719e+01 |    Inf | unknown
r 2.4s|     1 |     0 | 15797 |     - |simplero|   0 |3565 | 170 | 170 |   0 |  0 |   0 |   0 |      --      | 2.118487e+01 |    Inf | unknown
r 2.4s|     1 |     0 | 15847 |     - |simplero|   0 |3580 | 170 | 170 |   0 |  0 |   0 |   0 |      --      | 2.112266e+01 |    Inf | unknown
r 2.4s|     1 |     0 | 15864 |     - |simplero|   0 |3580 | 170 | 170 |   0 |  0 |   0 |   0 |      --      | 2.111636e+01 |    Inf | unknown
r 2.4s|     1 |     0 | 15877 |     - |simplero|   0 |3580 | 170 | 170 |   0 |  0 |   0 |   0 |      --      | 2.111427e+01 |    Inf | unknown
r 2.4s|     1 |     0 | 15946 |     - |simplero|   0 |3595 | 170 | 170 |   0 |  0 |   0 |   0 |      --      | 2.104698e+01 |    Inf | unknown
r 2.5s|     1 |     0 | 15960 |     - |simplero|   0 |3595 | 170 | 170 |   0 |  0 |   0 |   0 |      --      | 2.104543e+01 |    Inf | unknown
r 2.5s|     1 |     0 | 16024 |     - |simplero|   0 |3607 | 170 | 170 |   0 |  0 |   0 |   0 |      --      | 2.098630e+01 |    Inf | unknown
r 2.5s|     1 |     0 | 16041 |     - |simplero|   0 |3607 | 170 | 170 |   0 |  0 |   0 |   0 |      --      | 2.098225e+01 |    Inf | unknown
r 2.5s|     1 |     0 | 16045 |     - |simplero|   0 |3607 | 170 | 170 |   0 |  0 |   0 |   0 |      --      | 2.098210e+01 |    Inf | unknown
r 2.5s|     1 |     0 | 16111 |     - |simplero|   0 |3619 | 170 | 170 |   0 |  0 |   0 |   0 |      --      | 2.094011e+01 |    Inf | unknown
 time | node  | left  |LP iter|LP it/n|mem/heur|mdpt |vars |cons |rows |cuts |sepa|confs|strbr|  dualbound   | primalbound  |  gap   | compl. 
r 2.5s|     1 |     0 | 16119 |     - |simplero|   0 |3619 | 170 | 170 |   0 |  0 |   0 |   0 |      --      | 2.093977e+01 |    Inf | unknown
r 2.5s|     1 |     0 | 16217 |     - |simplero|   0 |3631 | 170 | 170 |   0 |  0 |   0 |   0 |      --      | 2.088413e+01 |    Inf | unknown
r 2.5s|     1 |     0 | 16224 |     - |simplero|   0 |3631 | 170 | 170 |   0 |  0 |   0 |   0 |      --      | 2.088371e+01 |    Inf | unknown
r 2.5s|     1 |     0 | 16225 |     - |simplero|   0 |3631 | 170 | 170 |   0 |  0 |   0 |   0 |      --      | 2.088368e+01 |    Inf | unknown
r 2.5s|     1 |     0 | 16269 |     - |simplero|   0 |3643 | 170 | 170 |   0 |  0 |   0 |   0 |      --      | 2.086686e+01 |    Inf | unknown
r 2.5s|     1 |     0 | 16328 |     - |simplero|   0 |3652 | 170 | 170 |   0 |  0 |   0 |   0 |      --      | 2.084464e+01 |    Inf | unknown
r 2.5s|     1 |     0 | 16414 |     - |simplero|   0 |3665 | 170 | 170 |   0 |  0 |   0 |   0 |      --      | 2.082743e+01 |    Inf | unknown
r 2.5s|     1 |     0 | 16461 |     - |simplero|   0 |3676 | 170 | 170 |   0 |  0 |   0 |   0 |      --      | 2.081664e+01 |    Inf | unknown
r 2.5s|     1 |     0 | 16514 |     - |simplero|   0 |3684 | 170 | 170 |   0 |  0 |   0 |   0 |      --      | 2.080356e+01 |    Inf | unknown
r 2.5s|     1 |     0 | 16518 |     - |simplero|   0 |3684 | 170 | 170 |   0 |  0 |   0 |   0 |      --      | 2.080342e+01 |    Inf | unknown
r 2.5s|     1 |     0 | 16546 |     - |simplero|   0 |3691 | 170 | 170 |   0 |  0 |   0 |   0 |      --      | 2.079702e+01 |    Inf | unknown
r 2.5s|     1 |     0 | 16553 |     - |simplero|   0 |3691 | 170 | 170 |   0 |  0 |   0 |   0 |      --      | 2.079674e+01 |    Inf | unknown
r 2.6s|     1 |     0 | 16598 |     - |simplero|   0 |3697 | 170 | 170 |   0 |  0 |   0 |   0 |      --      | 2.079213e+01 |    Inf | unknown
r 2.6s|     1 |     0 | 16602 |     - |simplero|   0 |3697 | 170 | 170 |   0 |  0 |   0 |   0 |      --      | 2.079206e+01 |    Inf | unknown
r 2.6s|     1 |     0 | 16618 |     - |simplero|   0 |3704 | 170 | 170 |   0 |  0 |   0 |   0 |      --      | 2.078914e+01 |    Inf | unknown
 time | node  | left  |LP iter|LP it/n|mem/heur|mdpt |vars |cons |rows |cuts |sepa|confs|strbr|  dualbound   | primalbound  |  gap   | compl. 
r 2.6s|     1 |     0 | 16625 |     - |simplero|   0 |3704 | 170 | 170 |   0 |  0 |   0 |   0 |      --      | 2.078903e+01 |    Inf | unknown
r 2.6s|     1 |     0 | 16633 |     - |simplero|   0 |3709 | 170 | 170 |   0 |  0 |   0 |   0 |      --      | 2.078892e+01 |    Inf | unknown
r 2.6s|     1 |     0 | 16639 |     - |simplero|   0 |3711 | 170 | 170 |   0 |  0 |   0 |   0 |      --      | 2.078883e+01 |    Inf | unknown
r 2.6s|     1 |     0 | 16642 |     - |simplero|   0 |3712 | 170 | 170 |   0 |  0 |   0 |   0 |      --      | 2.078882e+01 |    Inf | unknown
  2.6s|     1 |     0 | 16642 |     - |    24M |   0 |3712 | 170 | 170 |   0 |  0 |   0 |   0 | 2.078882e+01 | 2.078882e+01 |   0.00%| unknown
  2.6s|     1 |     0 | 16642 |     - |    24M |   0 |3712 | 170 | 170 |   0 |  0 |   0 |   0 | 2.078882e+01 | 2.078882e+01 |   0.00%| unknown

SCIP Status        : problem is solved [optimal solution found]
Solving Time (sec) : 2.58
Solving Nodes      : 1
Primal Bound       : +2.07888237377841e+01 (180 solutions)
Dual Bound         : +2.07888237377841e+01
Gap                : 0.00 %

written transformed problem to file <results_rootrelaxation/bin018_080_009.srr.lp>
written transformed problem to file <results_rootrelaxation/bin018_080_009.srr.cip>

written solution information to file <results_rootrelaxation/bin018_080_009.srr.sol>



